%%% static parameters %%%
timespan = 1;
Clients_N = [4000];
Demand_W = [15];
Lt0 = [4];
Lt1 = [4];
SS_ = [0.85];
DS_D = [20];
K = [200];
MA = [500];
HC = [0.05];
%%% dynamic parameters %%%
lost_ratio_sales_ret_th = 0.0006082601384638004;
lost_ratio_sales_ret_w = 14;
lost_ratio_sales_dis_th = 0.0005452546452836605;
lost_ratio_sales_dis_w = 48;
lost_ratio_sales_fac_th = 2.4468376510453193e-05;
lost_ratio_sales_fac_w = 96;
stock_customer_MA_mean_relative_th = 0.64806991353885;
stock_customer_MA_mean_relative_w = 33;
stock_distributor_MA_mean_relative_th = 0.5274896056690098;
stock_distributor_MA_mean_relative_w = 85;
stock_retailer_MA_mean_relative_th = 0.723001097774203;
stock_retailer_MA_mean_relative_w = 7;
stock_factory_MA_mean_relative_th = 0.2652281240957667;
stock_factory_MA_mean_relative_w = 35;
